p edge 159
e 0 1
e 0 2
e 0 3
e 0 110
e 0 122
e 0 135
e 0 143
e 1 3
e 1 20
e 1 21
e 1 32
e 1 122
e 2 3
e 2 73
e 2 109
e 2 110
e 2 142
e 2 146
e 3 73
e 4 6
e 4 7
e 4 14
e 4 17
e 4 20
e 4 21
e 4 51
e 5 12
e 5 15
e 5 23
e 5 91
e 6 11
e 6 17
e 6 20
e 6 29
e 7 9
e 7 10
e 7 14
e 7 16
e 7 17
e 7 19
e 7 24
e 7 27
e 7 31
e 8 19
e 8 27
e 8 75
e 9 10
e 9 22
e 9 26
e 9 31
e 10 14
e 10 18
e 10 26
e 10 30
e 11 13
e 11 20
e 11 28
e 11 29
e 11 32
e 12 13
e 12 15
e 12 16
e 12 23
e 12 24
e 12 27
e 12 29
e 13 15
e 13 28
e 13 29
e 13 78
e 14 30
e 14 51
e 15 78
e 15 91
e 16 17
e 16 24
e 16 29
e 17 29
e 18 30
e 18 60
e 18 139
e 19 22
e 19 25
e 19 27
e 19 31
e 20 21
e 20 32
e 21 73
e 22 25
e 22 26
e 22 31
e 22 61
e 23 27
e 23 43
e 23 47
e 23 75
e 23 91
e 24 27
e 25 61
e 26 60
e 26 61
e 26 84
e 27 75
e 28 32
e 28 76
e 28 78
e 28 129
e 30 51
e 30 137
e 30 138
e 30 139
e 32 122
e 32 129
e 33 34
e 33 35
e 33 37
e 33 158
e 34 35
e 34 36
e 34 123
e 34 135
e 34 158
e 35 36
e 36 110
e 36 135
e 37 108
e 37 124
e 37 145
e 37 158
e 38 127
e 38 128
e 38 130
e 38 131
e 38 132
e 39 40
e 39 71
e 39 72
e 39 74
e 40 41
e 40 74
e 40 85
e 41 74
e 41 85
e 41 103
e 41 104
e 41 141
e 42 44
e 42 46
e 42 59
e 42 107
e 42 118
e 43 45
e 43 47
e 43 75
e 44 45
e 44 46
e 44 47
e 45 47
e 46 47
e 46 69
e 46 70
e 46 107
e 46 121
e 47 91
e 47 121
e 48 65
e 48 66
e 48 70
e 48 111
e 48 113
e 48 117
e 49 51
e 49 94
e 49 109
e 49 112
e 49 125
e 49 157
e 50 54
e 50 111
e 50 117
e 50 120
e 50 126
e 51 73
e 51 109
e 51 137
e 51 157
e 52 53
e 52 60
e 52 138
e 52 139
e 53 60
e 53 62
e 53 64
e 54 55
e 54 104
e 54 119
e 54 120
e 54 126
e 54 133
e 54 149
e 55 97
e 55 104
e 55 116
e 55 149
e 56 57
e 56 58
e 56 105
e 56 148
e 56 154
e 56 156
e 57 99
e 57 100
e 57 105
e 57 108
e 58 108
e 58 148
e 58 155
e 58 158
e 59 118
e 59 150
e 60 62
e 60 84
e 60 139
e 61 84
e 62 63
e 62 64
e 62 84
e 62 90
e 65 66
e 65 68
e 65 83
e 65 93
e 65 117
e 65 131
e 66 67
e 66 68
e 66 70
e 67 68
e 67 70
e 67 107
e 67 118
e 67 151
e 68 130
e 68 131
e 68 151
e 69 70
e 69 121
e 69 140
e 70 107
e 70 113
e 70 140
e 71 72
e 71 86
e 71 87
e 71 106
e 71 134
e 72 74
e 72 134
e 73 109
e 74 103
e 74 115
e 74 134
e 76 77
e 76 78
e 76 80
e 76 81
e 76 129
e 76 148
e 77 78
e 77 79
e 77 80
e 77 101
e 78 79
e 78 91
e 79 91
e 79 101
e 79 102
e 79 121
e 80 101
e 80 148
e 80 154
e 81 82
e 81 129
e 81 148
e 81 155
e 82 122
e 82 123
e 82 129
e 82 136
e 82 143
e 82 155
e 83 92
e 83 93
e 83 98
e 83 131
e 83 144
e 84 90
e 85 141
e 86 87
e 86 88
e 86 89
e 86 106
e 87 88
e 88 89
e 88 145
e 89 106
e 89 108
e 89 124
e 89 145
e 89 153
e 91 121
e 92 98
e 92 131
e 92 132
e 93 117
e 93 120
e 93 144
e 93 149
e 94 109
e 94 142
e 95 96
e 95 97
e 95 116
e 96 97
e 96 98
e 96 144
e 96 149
e 97 116
e 97 149
e 98 144
e 99 100
e 99 105
e 99 119
e 100 108
e 100 115
e 100 119
e 100 134
e 101 102
e 101 113
e 101 114
e 101 140
e 101 154
e 102 121
e 102 140
e 103 104
e 103 115
e 103 133
e 104 116
e 104 133
e 104 141
e 105 119
e 105 126
e 105 156
e 106 134
e 106 153
e 107 118
e 108 124
e 108 153
e 108 158
e 109 142
e 110 135
e 110 146
e 111 113
e 111 114
e 111 117
e 111 126
e 111 156
e 112 125
e 112 147
e 112 157
e 113 114
e 113 140
e 114 154
e 114 156
e 115 119
e 115 133
e 115 134
e 117 120
e 118 150
e 118 151
e 119 126
e 119 133
e 120 149
e 121 140
e 122 129
e 122 143
e 123 135
e 123 136
e 123 143
e 123 158
e 124 145
e 126 156
e 127 128
e 127 130
e 127 152
e 128 152
e 130 131
e 130 151
e 130 152
e 131 132
e 134 153
e 135 143
e 136 155
e 136 158
e 137 138
e 137 147
e 137 157
e 138 139
e 138 147
e 142 146
e 144 149
e 147 157
e 148 155
e 150 151
e 150 152
e 151 152
e 154 156
e 155 158
c k 14
